VER
4

OBJSENSE
MIN

QCECONES
1 2
2
3 3
1


VAR
8 1
F 8

CON
61 4
@0:SVECQCE 46
SVECQE 8
SVECPSD 6
L= 1

OBJACOORD
2
0 1.0
1 1.0

ACOORD
20
0 0 1.0
1 2 1.0
7 3 1.0
10 4 1.0
22 5 1.0
25 6 1.0
28 7 1.0
46 1 1.0
48 2 1.0
48 4 1.0
48 7 1.0
54 2 1.0
55 3 1.0
56 4 1.0
57 5 1.0
58 6 1.0
59 7 1.0
60 2 1.0
60 4 1.0
60 7 1.0

BCOORD
2
47 -1.0
60 1.0
